NAME: tsp20-2
TYPE: TSP
DIMENSION: 20
EDGE_WEIGHT_TYPE: EUC_2D
NODE_COORD_SECTION
0 33 25
1 56 50
2 97 38
3 81 72
4 48 2
5 71 49
6 20 85
7 18 51
8 76 79
9 60 87
10 94 39
11 19 34
12 15 18
13 30 9
14 65 57
15 34 30
16 8 94
17 59 7
18 44 48
19 32 33
EOF